File : Instances/p60
Used 67s
23896

0 1 1 0 1 1 1 0 1 0 0 0 0 0 0 0 1 1 1 0 0 1 0 1 0 1 1 0 0 0 
18 6 21 18 2 6 21 17 18 17 4 17 23 1 6 18 1 8 16 17 18 16 5 2 23 18 16 17 4 2 4 26 4 16 18 6 8 8 16 16 18 8 6 4 8 26 8 21 26 26 2 16 21 16 8 6 25 8 18 25 4 2 18 8 8 25 5 26 6 25 18 6 6 8 23 23 8 23 8 16 23 17 26 25 4 23 6 5 18 25 17 6 25 25 2 1 18 6 17 17 17 21 25 18 4 2 4 16 16 1 26 4 18 6 6 8 17 25 17 8 26 25 17 4 26 16 2 25 26 17 17 21 25 8 23 8 1 8 17 23 6 18 6 25 25 5 16 21 18 25 2 17 23 17 8 25 2 16 8 1 1 17 23 2 5 18 5 4 1 21 1 8 17 23 26 2 2 23 4 23 2 21 21 6 25 8 6 23 17 21 2 21 6 4 25 6 18 21 23 26 
